%%% static parameters %%%
timespan = 1;
Fact = [2];
Distr1 = [5];
Distr2 = [10];
Clients_N = [100];
Demand_W = [15];
Lt0 = [4];
Lt1 = [4];
SS_ = [0.85];
DS_D = [8];
K = [200];
MA = [500];
%%% dynamic parameters %%%
lost_ratio_sales_ret_th = 0.29969015017314227;
lost_ratio_sales_ret_w = 10;
lost_ratio_sales_dis_th = 0.39832801242403926;
lost_ratio_sales_dis_w = 52;
lost_ratio_sales_fac_th = 0.35361573193659734;
lost_ratio_sales_fac_w = 38;
stock_customer_MA_mean_relative_th = 0.295889811832879;
stock_customer_MA_mean_relative_w = 66;
stock_distributor_MA_mean_relative_th = 0.962923760524455;
stock_distributor_MA_mean_relative_w = 8;
stock_retailer_MA_mean_relative_th = 0.039204524235063376;
stock_retailer_MA_mean_relative_w = 20;
stock_factory_MA_mean_relative_th = 0.8829514464096835;
stock_factory_MA_mean_relative_w = 27;
